c SAT Generator for power-law distributed variable frequencies
c -g u -v 20 -c 91 -k 3 -p 2.750000 -b 3.200000 -f /home/schmidt/Devel/ni-kop-sat/data/ensemble/ruf20-91/ruf20-91-211 -u 1 -U 1 -s 2596931643
p cnf 20 91
9 14 -16 0
6 -13 19 0
-5 -13 17 0
-2 5 15 0
1 -2 3 0
-13 15 16 0
5 6 11 0
7 -12 -13 0
-2 -3 5 0
3 -5 -14 0
1 -15 19 0
1 15 -18 0
2 7 18 0
-15 -17 -19 0
6 -10 13 0
-6 -8 -19 0
2 -9 19 0
-1 3 -8 0
14 -17 19 0
3 -14 20 0
-2 -11 -16 0
-5 -11 -18 0
-5 7 12 0
-4 -15 18 0
-1 3 16 0
-11 -17 -18 0
7 -11 -18 0
-6 19 -20 0
-2 -6 16 0
10 13 -18 0
-2 -6 -8 0
1 7 -19 0
10 -11 16 0
4 11 19 0
-7 15 -20 0
-2 8 16 0
-1 6 20 0
9 -12 -13 0
-13 14 -15 0
2 -8 -13 0
-7 -12 -17 0
5 -13 -20 0
2 -8 -18 0
8 -11 -18 0
10 17 -18 0
-4 -10 -14 0
3 9 -12 0
-3 -4 -9 0
-1 -7 -14 0
4 -5 -7 0
9 11 -12 0
-3 6 -16 0
-2 -15 -16 0
-3 -10 14 0
2 4 7 0
3 7 -19 0
-5 8 -14 0
-9 11 16 0
-1 2 15 0
8 -12 -15 0
3 -6 -14 0
2 -12 20 0
-3 16 -20 0
2 -9 12 0
-14 15 -20 0
-4 -13 -20 0
-4 6 -8 0
-10 -11 15 0
6 7 12 0
-13 17 -19 0
-10 13 -15 0
-6 11 14 0
5 -8 -14 0
4 -10 -20 0
1 -3 13 0
3 4 9 0
5 7 11 0
5 -18 19 0
-12 -15 20 0
5 9 -11 0
-7 15 16 0
15 -16 18 0
6 11 20 0
4 -18 20 0
-6 -13 -17 0
17 19 20 0
-13 -18 19 0
-7 -11 -13 0
-5 7 -9 0
7 -9 17 0
-2 9 -15 0
